
Gurobi 11.0.0 (linux64, gurobi_cl) logging started Sun Dec 31 01:15:09 2023

Set parameter Username
Set parameter LogFile to value "gurobi.log"
Using license file /home/memo/gurobi.lic
Academic license - for non-commercial use only - expires 2024-12-04

Gurobi Optimizer version 11.0.0 build v11.0.0rc2 (linux64 - "Pop!_OS 22.04 LTS")
Copyright (c) 2023, Gurobi Optimization, LLC


Gurobi 11.0.0 (linux64, gurobi_cl) logging started Sun Dec 31 01:19:02 2023

Set parameter Username
Set parameter LogFile to value "gurobi.log"
Using license file /home/memo/gurobi.lic
Academic license - for non-commercial use only - expires 2024-12-04

Gurobi Optimizer version 11.0.0 build v11.0.0rc2 (linux64 - "Pop!_OS 22.04 LTS")
Copyright (c) 2023, Gurobi Optimization, LLC

Read LP format model from file /tmp/2a8e5f74b968468090680fadee6e6753-pulp.lp
Reading time = 2.16 seconds
OBJ: 195990 rows, 102526 columns, 3985760 nonzeros

CPU model: Intel(R) Core(TM) i7-6700HQ CPU @ 2.60GHz, instruction set [SSE2|AVX|AVX2]
Thread count: 4 physical cores, 8 logical processors, using up to 8 threads

Optimize a model with 195990 rows, 102526 columns and 3985760 nonzeros
Model fingerprint: 0x045cf60c
Variable types: 2 continuous, 102524 integer (102524 binary)
Coefficient statistics:
  Matrix range     [5e-04, 1e+00]
  Objective range  [3e+02, 1e+03]
  Bounds range     [1e+00, 1e+00]
  RHS range        [5e-01, 1e+00]
Found heuristic solution: objective -0.0000000
Presolve removed 5 rows and 0 columns (presolve time = 5s) ...
Presolve removed 3981 rows and 0 columns (presolve time = 10s) ...
Presolve removed 77819 rows and 0 columns (presolve time = 15s) ...
Presolve removed 80837 rows and 1 columns (presolve time = 20s) ...
Presolve removed 80837 rows and 1 columns
Presolve time: 22.74s
Presolved: 115153 rows, 102525 columns, 2399716 nonzeros
Variable types: 1 continuous, 102524 integer (102524 binary)
Found heuristic solution: objective 1109900.0000
Deterministic concurrent LP optimizer: primal simplex, dual simplex, and barrier
Showing barrier log only...

Root barrier log...

Ordering time: 0.66s

Barrier performed 0 iterations in 27.53 seconds (17.58 work units)
Barrier solve interrupted - model solved by another algorithm

Concurrent spin time: 0.09s

Solved with primal simplex

Root simplex log...

Iteration    Objective       Primal Inf.    Dual Inf.      Time
    4708    1.3170962e+06   0.000000e+00   0.000000e+00     28s

Use crossover to convert LP symmetric solution to basic solution...

Root crossover log...

    8661 PPushes remaining with PInf 0.0000000e+00                28s
       0 PPushes remaining with PInf 0.0000000e+00                29s

  Push phase complete: Pinf 0.0000000e+00, Dinf 1.9151802e-10     29s


Root simplex log...

Iteration    Objective       Primal Inf.    Dual Inf.      Time
   13372    1.3170962e+06   0.000000e+00   0.000000e+00     29s

Root relaxation: objective 1.317096e+06, 13372 iterations, 4.67 seconds (1.72 work units)
Total elapsed time = 33.48s (DegenMoves)
Total elapsed time = 35.03s (DegenMoves)

    Nodes    |    Current Node    |     Objective Bounds      |     Work
 Expl Unexpl |  Obj  Depth IntInf | Incumbent    BestBd   Gap | It/Node Time

     0     0 1317096.20    0  158 1109900.00 1317096.20  18.7%     -   40s
H    0     0                    1296400.0000 1317096.20  1.60%     -   41s
H    0     0                    1297500.0000 1317096.20  1.51%     -   64s
     0     0 1317096.20    0  127 1297500.00 1317096.20  1.51%     -   71s
H    0     0                    1312300.0000 1317096.20  0.37%     -  111s
     0     0 1317096.20    0  143 1312300.00 1317096.20  0.37%     -  112s
     0     0 1317096.20    0  113 1312300.00 1317096.20  0.37%     -  121s
     0     0 1317096.20    0  145 1312300.00 1317096.20  0.37%     -  124s
     0     0 1317096.20    0  116 1312300.00 1317096.20  0.37%     -  136s
     0     0 1317096.20    0  120 1312300.00 1317096.20  0.37%     -  138s
     0     0 1317096.20    0  118 1312300.00 1317096.20  0.37%     -  150s
     0     0 1317096.20    0  117 1312300.00 1317096.20  0.37%     -  155s
     0     0 1317096.20    0  117 1312300.00 1317096.20  0.37%     -  163s
     0     0 1317096.20    0  124 1312300.00 1317096.20  0.37%     -  166s
     0     0 1317096.20    0  110 1312300.00 1317096.20  0.37%     -  173s
     0     0 1317096.20    0  138 1312300.00 1317096.20  0.37%     -  179s
     0     0 1317096.20    0  105 1312300.00 1317096.20  0.37%     -  186s
     0     0 1317096.20    0  105 1312300.00 1317096.20  0.37%     -  190s
     0     2 1317096.20    0  104 1312300.00 1317096.20  0.37%     -  223s
     1     2 1317096.20    1  128 1312300.00 1317096.20  0.37%  1761  449s
     3     2 1317006.19    2  121 1312300.00 1317006.19  0.36% 27321  621s
     5     2 1316582.13    3  146 1312300.00 1316582.13  0.33% 30841  665s
     7     2 1316582.13    4  142 1312300.00 1316582.13  0.33% 24879  676s
    11     8 1316581.88    6  125 1312300.00 1316581.88  0.33% 16531  687s
    15    12 1316428.58    7  129 1312300.00 1316528.00  0.32% 12481  691s
    19    16 1316428.58    8  221 1312300.00 1316497.44  0.32%  9892  695s
    23    23 1316310.58    9  218 1312300.00 1316497.44  0.32%  8201  702s
H   30    27                    1312800.0000 1316497.44  0.28%  6298  707s
    34    32 1316274.41   11  201 1312800.00 1316497.44  0.28%  5591  713s
    39    36 1316036.59   12  170 1312800.00 1316497.44  0.28%  4890  717s
    43    42 1315018.86   12  184 1312800.00 1316497.44  0.28%  4462  722s
    49    47 1315994.06   13  172 1312800.00 1316497.44  0.28%  3924  731s
H   54    49                    1313200.0000 1316497.44  0.25%  3610  825s
    58    52 1315851.28   16  129 1313200.00 1316497.44  0.25%  3733  840s
    62    57 1315690.67   17  128 1313200.00 1316497.44  0.25%  3639  846s
    67    66 1315486.13   18  116 1313200.00 1316497.44  0.25%  3372  854s
    76    75 1315532.10   18  120 1313200.00 1316497.44  0.25%  2979  861s
    85    84 1315424.49   20  107 1313200.00 1316497.44  0.25%  2673  869s
    94    90 1315470.09   21  109 1313200.00 1316497.44  0.25%  2422  876s
   100   100 1315327.23   23  109 1313200.00 1316497.44  0.25%  2283  885s
   110   108 1315338.54   24  108 1313200.00 1316497.44  0.25%  2080  893s
   120   120 1315338.54   26  107 1313200.00 1316497.44  0.25%  1912  901s
   132   123 1315305.09   28  103 1313200.00 1316497.44  0.25%  1741  911s
H  136   123                    1313300.0000 1316497.44  0.24%  1696  911s
   137   133 1315289.27   29   96 1313300.00 1316497.44  0.24%  1684  921s
   150   143 1315289.27   30   98 1313300.00 1316497.44  0.24%  1550  947s
   163   152 1314639.65   33   91 1313300.00 1316497.44  0.24%  1559  957s
   172   165 1314623.36   35   90 1313300.00 1316497.44  0.24%  1480  970s
   185   179 1314435.35   38   91 1313300.00 1316497.44  0.24%  1385  982s
